NAME : single
TYPE : ATSP
DIMENSION : 11
EDGE_WEIGHT_TYPE : EXPLICIT
EDGE_WEIGHT_FORMAT : FULL_MATRIX
EDGE_WEIGHT_SECTION
0 605 538 456 397 342 291 234 143 186 329 
0 0 61 108 161 215 266 320 365 387 298 
0 61 0 55 111 166 218 272 314 330 237 
0 108 55 0 56 111 162 217 259 278 203 
0 161 111 56 0 55 106 161 204 228 180 
0 215 166 111 55 0 51 106 150 181 173 
0 266 218 162 106 51 0 54 101 144 183 
0 320 272 217 161 106 54 0 55 116 207 
0 365 314 259 204 150 101 55 0 72 204 
0 387 330 278 228 181 144 116 72 0 164 
0 298 237 203 180 173 183 207 204 164 0 
EOF